feasible solution found by trivial heuristic after 5.4 seconds, objective value 0.000000e+00
presolving:
(round 1, fast)       807909 del vars, 807940 del conss, 0 add conss, 803975 chg bounds, 0 chg sides, 0 chg coeffs, 0 upgd conss, 0 impls, 1552 clqs
   (11.3s) running MILP presolver
   (11.3s) MILP presolver found nothing
(round 2, exhaustive) 807909 del vars, 807940 del conss, 0 add conss, 803975 chg bounds, 0 chg sides, 0 chg coeffs, 3537 upgd conss, 0 impls, 1552 clqs
   (11.3s) probing: 51/2387 (2.1%) - 0 fixings, 0 aggregations, 0 implications, 0 bound changes
   (11.3s) probing aborted: 50/50 successive totally useless probings
   (11.4s) symmetry computation started: requiring (bin +, int -, cont +), (fixed: bin -, int +, cont -)
   (11.4s) no symmetry present
presolving (3 rounds: 3 fast, 2 medium, 2 exhaustive):
 807909 deleted vars, 807940 deleted constraints, 0 added constraints, 803975 tightened bounds, 0 added holes, 0 changed sides, 0 changed coefficients
 0 implications, 1552 cliques
presolved problem has 2387 variables (2387 bin, 0 int, 0 impl, 0 cont) and 3537 constraints
   1552 constraints of type <setppc>
   1985 constraints of type <logicor>
Presolving Time: 7.48

 time | node  | left  |LP iter|LP it/n|mem/heur|mdpt |vars |cons |rows |cuts |sepa|confs|strbr|  dualbound   | primalbound  |  gap   | compl. 
t11.4s|     1 |     0 |     0 |     - | trivial|   0 |2387 |3537 |   0 |   0 |  0 |   0 |   0 | 1.249265e+07 | 3.727329e+05 |3251.64%| unknown
p13.5s|     1 |     0 |     0 |     - |   locks|   0 |2387 |3537 |3537 |   0 |  0 |   0 |   0 | 1.249265e+07 | 5.102854e+06 | 144.82%| unknown
 14.0s|     1 |     0 |   976 |     - |  2290M |   0 |2387 |3537 |3537 |   0 |  0 |   0 |   0 | 5.901329e+06 | 5.102854e+06 |  15.65%| unknown
 15.6s|     1 |     0 |  1122 |     - |  2291M |   0 |2387 |3537 |3546 |   9 |  1 |   0 |   0 | 5.872776e+06 | 5.102854e+06 |  15.09%| unknown
 17.1s|     1 |     0 |  1315 |     - |  2291M |   0 |2387 |3537 |3554 |  17 |  2 |   0 |   0 | 5.842634e+06 | 5.102854e+06 |  14.50%| unknown
 18.7s|     1 |     0 |  1521 |     - |  2292M |   0 |2387 |3537 |3564 |  27 |  3 |   0 |   0 | 5.810278e+06 | 5.102854e+06 |  13.86%| unknown
 20.7s|     1 |     0 |  1635 |     - |  2292M |   0 |2387 |3537 |3568 |  31 |  4 |   0 |   0 | 5.800647e+06 | 5.102854e+06 |  13.67%| unknown
 22.4s|     1 |     0 |  1744 |     - |  2293M |   0 |2387 |3537 |3570 |  33 |  5 |   0 |   0 | 5.793547e+06 | 5.102854e+06 |  13.54%| unknown
 25.2s|     1 |     0 |  1850 |     - |  2294M |   0 |2387 |3537 |3572 |  35 |  6 |   0 |   0 | 5.790978e+06 | 5.102854e+06 |  13.49%| unknown
 27.0s|     1 |     0 |  1887 |     - |  2296M |   0 |2387 |3537 |3574 |  37 |  7 |   0 |   0 | 5.790494e+06 | 5.102854e+06 |  13.48%| unknown
 28.6s|     1 |     0 |  2050 |     - |  2296M |   0 |2387 |3537 |3576 |  39 |  8 |   0 |   0 | 5.786122e+06 | 5.102854e+06 |  13.39%| unknown
 29.9s|     1 |     0 |  2146 |     - |  2299M |   0 |2387 |3537 |3578 |  41 |  9 |   0 |   0 | 5.784281e+06 | 5.102854e+06 |  13.35%| unknown
 31.6s|     1 |     0 |  2329 |     - |  2301M |   0 |2387 |3537 |3581 |  44 | 10 |   0 |   0 | 5.779807e+06 | 5.102854e+06 |  13.27%| unknown
 33.1s|     1 |     0 |  2466 |     - |  2301M |   0 |2387 |3537 |3584 |  47 | 11 |   0 |   0 | 5.776603e+06 | 5.102854e+06 |  13.20%| unknown
 34.3s|     1 |     0 |  2560 |     - |  2302M |   0 |2387 |3537 |3587 |  50 | 12 |   0 |   0 | 5.773983e+06 | 5.102854e+06 |  13.15%| unknown
 time | node  | left  |LP iter|LP it/n|mem/heur|mdpt |vars |cons |rows |cuts |sepa|confs|strbr|  dualbound   | primalbound  |  gap   | compl. 
 35.6s|     1 |     0 |  2677 |     - |  2302M |   0 |2387 |3537 |3591 |  54 | 13 |   0 |   0 | 5.771215e+06 | 5.102854e+06 |  13.10%| unknown
 36.7s|     1 |     0 |  2750 |     - |  2303M |   0 |2387 |3537 |3593 |  56 | 14 |   0 |   0 | 5.770133e+06 | 5.102854e+06 |  13.08%| unknown
 37.8s|     1 |     0 |  2961 |     - |  2303M |   0 |2387 |3537 |3596 |  59 | 15 |   0 |   0 | 5.761570e+06 | 5.102854e+06 |  12.91%| unknown
 38.9s|     1 |     0 |  3011 |     - |  2303M |   0 |2387 |3537 |3597 |  60 | 16 |   0 |   0 | 5.761242e+06 | 5.102854e+06 |  12.90%| unknown
 40.0s|     1 |     0 |  3084 |     - |  2304M |   0 |2387 |3537 |3599 |  62 | 17 |   0 |   0 | 5.759397e+06 | 5.102854e+06 |  12.87%| unknown
 41.2s|     1 |     0 |  3217 |     - |  2304M |   0 |2387 |3537 |3601 |  64 | 18 |   0 |   0 | 5.756326e+06 | 5.102854e+06 |  12.81%| unknown
 42.6s|     1 |     0 |  3341 |     - |  2305M |   0 |2387 |3537 |3603 |  66 | 19 |   0 |   0 | 5.754978e+06 | 5.102854e+06 |  12.78%| unknown
 44.0s|     1 |     0 |  3467 |     - |  2305M |   0 |2387 |3537 |3605 |  68 | 20 |   0 |   0 | 5.751636e+06 | 5.102854e+06 |  12.71%| unknown
d45.8s|     1 |     0 |  4758 |     - |farkasdi|   0 |2387 |3537 |3605 |   0 | 22 |   0 |   0 | 5.751636e+06 | 5.409060e+06 |   6.33%| unknown
L55.2s|     1 |     0 |  4758 |     - |    rens|   0 |2387 |3537 |3605 |  68 | 22 |   0 |   0 | 5.751636e+06 | 5.562617e+06 |   3.40%| unknown
 55.9s|     1 |     0 |  4758 |     - |  2305M |   0 |2387 |3537 |3605 |  68 | 22 |   0 |   0 | 5.751636e+06 | 5.562617e+06 |   3.40%| unknown
 59.4s|     1 |     2 |  4758 |     - |  2307M |   0 |2387 |3537 |3605 |  68 | 24 |   0 |  19 | 5.735531e+06 | 5.562617e+06 |   3.11%| unknown

SCIP Status        : problem is solved [optimal solution found]
Solving Time (sec) : 103.49
Solving Nodes      : 85
Primal Bound       : +5.56261693286830e+06 (364 solutions)
Dual Bound         : +5.56261693286830e+06
Gap                : 0.00 %
Solve Status: optimal
Solve Time: 104.15 seconds
